\* Problem: Unknown *\

Maximize
 obj: + xp_0_0 + xp_0_1 + xp_0_2 + xp_0_3 + xp_0_4 + xp_0_5 + xp_0_6
 + xp_0_7 + xp_0_8 + xp_1_0 + xp_1_1 + xp_1_2 + xp_2_0 + xp_2_1 + xp_2_2
 + xp_2_3 + xp_2_4 + xp_3_0 + xp_3_1 + xp_3_2 + xp_3_3 + xp_4_0 + xp_5_0
 + xp_5_1 + xp_5_2 + xp_6_0 + xp_6_1 + xp_6_2 + xp_6_3 + xp_7_0 + xp_7_1
 + xp_8_0 + xp_8_1 + xp_9_0 + xp_10_0 + xp_10_1 + xp_11_0 + xp_11_1
 + xp_11_2 + xp_11_3 + xp_12_0 + xp_13_0 + xp_13_1 + xp_14_0 + xp_14_1
 + xp_15_0 + xp_16_0 + xp_16_1 + xp_17_0 + xp_17_1 + xp_17_2 + xp_17_3
 + xp_17_4 + xp_17_5 + xp_17_6 + xp_18_0 + xp_18_1 + xp_18_2 + xp_18_3
 + xp_18_4 + xp_18_5 + xp_19_0 + xp_19_1 + xp_19_2 + xp_19_3 + xp_19_4
 + xp_19_5 + xp_20_0 + xp_20_1 + xp_20_2 + xp_20_3 + xp_21_0 + xp_21_1
 + xp_21_2 + xp_21_3 + xp_21_4 + xp_21_5 + xp_22_0 + xp_22_1 + xp_22_2
 + xp_22_3 + xp_22_4 + xp_22_5 + xp_22_6 + xp_23_0 + xp_23_1 + xp_23_2
 + xp_23_3 + xp_23_4 + xp_23_5 + xp_23_6

Subject To
 r_1: 0 xp_0_0 <= 28.8106343283582
 r_2: + xp_22_5 + xp_18_2 + xp_6_3 + xp_5_2 + xp_2_3 <= 27.9004491017964
 r_3: + xp_23_2 + xp_21_1 + xp_18_4 + xp_18_3 + xp_17_6 + xp_6_1 <= 30
 r_4: + xp_18_5 + xp_17_1 + xp_15_0 + xp_3_3 <= 30
 r_5: + xp_18_0 <= 27.0554272517321
 r_6: + xp_18_1 <= 30
 r_7: + xp_20_3 <= 28.8106343283582
 r_8: + xp_22_6 + xp_11_2 + xp_6_2 + xp_5_1 + xp_3_2 + xp_2_2
 <= 27.9004491017964
 r_9: + xp_23_4 + xp_11_1 + xp_3_1 <= 30
 r_10: + xp_3_0 <= 30
 r_11: + xp_18_4 + xp_18_1 + xp_11_3 <= 27.0554272517321
 r_12: + xp_11_0 + xp_3_3 <= 30
 r_13: 0 xp_0_0 <= 30
 r_14: + xp_21_5 + xp_19_3 + xp_14_0 + xp_0_4 + xp_0_1
 <= 27.9004491017964
 r_15: + xp_21_0 + xp_19_4 <= 28.8106343283582
 r_16: + xp_22_1 + xp_21_4 + xp_19_5 + xp_0_8 + xp_0_5 + xp_0_3 + xp_0_2
 <= 28.8106343283582
 r_17: + xp_0_0 <= 27.0554272517321
 r_18: + xp_21_1 + xp_4_0 <= 28.8106343283582
 r_19: + xp_19_0 <= 28.8106343283582
 r_20: + xp_21_3 + xp_21_2 + xp_19_2 + xp_19_1 + xp_14_1 + xp_0_7
 + xp_0_6 <= 28.8106343283582
 r_21: + xp_20_1 <= 27.9004491017964
 r_22: + xp_21_5 + xp_21_3 + xp_7_1 <= 27.9004491017964
 r_23: + xp_23_6 + xp_22_6 + xp_22_5 + xp_22_2 + xp_17_3
 <= 27.9004491017964
 r_24: + xp_23_3 + xp_17_5 + xp_6_3 + xp_6_2 + xp_3_2 + xp_0_6 + xp_0_4
 <= 29.0077821011673
 r_25: 0 xp_0_0 <= 27.9004491017964
 r_26: + xp_18_2 + xp_0_7 + xp_0_1 <= 27.0554272517321
 r_27: + xp_11_2 <= 27.9004491017964
 r_28: + xp_19_3 + xp_19_2 + xp_10_1 <= 27.9004491017964
 r_29: + xp_20_2 <= 28.8106343283582
 r_30: + xp_2_0 <= 27.9004491017964
 r_31: + xp_23_4 + xp_23_2 + xp_18_3 + xp_17_6 + xp_6_1 + xp_3_1
 + xp_2_4 <= 29.0077821011673
 r_32: + xp_2_1 <= 30
 r_33: + xp_11_1 + xp_2_3 <= 30
 r_34: + xp_19_4 + xp_18_4 + xp_2_2 <= 30
 r_35: 0 xp_0_0 <= 28.8106343283582
 r_36: + xp_9_0 <= 27.9004491017964
 r_37: + xp_21_4 + xp_13_1 + xp_8_1 + xp_0_3 <= 29.0077821011673
 r_38: + xp_23_6 + xp_23_5 + xp_1_1 + xp_0_8 <= 30
 r_39: + xp_19_5 + xp_17_3 + xp_17_2 + xp_0_5 <= 30
 r_40: + xp_0_2 <= 27.0554272517321
 r_41: + xp_12_0 + xp_2_4 <= 29.0077821011673
 r_42: + xp_21_4 <= 29.0077821011673
 r_43: + xp_22_4 + xp_16_0 <= 29.0077821011673
 r_44: + xp_23_4 + xp_23_3 + xp_23_2 + xp_23_1 + xp_16_1 + xp_1_2
 <= 29.0077821011673
 r_45: + xp_17_6 + xp_17_5 + xp_17_4 + xp_3_2 + xp_3_1
 <= 29.0077821011673
 r_46: + xp_18_3 + xp_0_6 + xp_0_4 + xp_0_3 <= 27.0554272517321
 r_47: + xp_22_3 + xp_16_1 + xp_13_1 <= 30
 r_48: + xp_13_0 <= 29.0077821011673
 r_49: 0 xp_0_0 <= 30
 r_50: + xp_0_8 <= 27.0554272517321
 r_51: + xp_8_1 + xp_1_1 <= 30
 r_52: + xp_8_0 + xp_1_2 <= 29.0077821011673
 r_53: + xp_1_0 <= 30
 r_54: + xp_18_5 + xp_0_5 <= 27.0554272517321
 r_55: 0 xp_0_0 <= 30
 r_56: + xp_19_5 <= 30
 r_57: + xp_22_1 <= 27.0554272517321
 r_58: + xp_23_6 + xp_23_3 + xp_22_2 + xp_17_5 + xp_17_3 + xp_5_0
 <= 27.0554272517321
 r_59: + xp_23_5 + xp_22_0 + xp_17_2 <= 27.0554272517321
 r_60: + xp_23_1 + xp_22_4 + xp_17_4 + xp_6_0 <= 27.0554272517321
 r_61: + xp_23_0 + xp_22_3 <= 27.0554272517321
 r_62: + xp_17_0 <= 27.0554272517321
 r_63: + xp_23_2 + xp_22_5 + xp_17_6 + xp_17_1 + xp_11_3 + xp_6_3
 + xp_6_1 + xp_5_2 <= 27.0554272517321
 r_64: + xp_23_4 + xp_22_6 + xp_6_2 + xp_5_1 <= 27.0554272517321
 r_65: + xp_21_3 + xp_20_1 + xp_19_2 + xp_14_1 + xp_10_1 + xp_7_1
 + xp_2_1 + xp_0_7 + xp_0_6 <= 27.9004491017964
 r_66: + xp_21_2 + xp_20_2 + xp_7_0 <= 30
 r_67: + xp_20_3 + xp_19_1 + xp_10_0 <= 30
 r_68: + xp_20_0 <= 28.8106343283582

Bounds
 0 <= xp_0_0 <= 28.2589359286202
 0 <= xp_0_1 <= 5.37625335194661
 0 <= xp_0_2 <= 14.866077875595
 0 <= xp_0_3 <= 2.12372541079929
 0 <= xp_0_4 <= 2.77423099902875
 0 <= xp_0_5 <= 4.24745082159857
 0 <= xp_0_6 <= 1.30101117645893
 0 <= xp_0_7 <= 2.60202235291786
 0 <= xp_0_8 <= 2.12372541079929
 0 <= xp_1_0 <= 21.3201431107763
 0 <= xp_1_1 <= 12.2066214926675
 0 <= xp_1_2 <= 2.12372541079929
 0 <= xp_2_0 <= 22.9783181793727
 0 <= xp_2_1 <= 0.580354690459942
 0 <= xp_2_2 <= 2.70408010125923
 0 <= xp_2_3 <= 6.76656293447883
 0 <= xp_2_4 <= 2.12372541079929
 0 <= xp_3_0 <= 26.6517897341945
 0 <= xp_3_1 <= 4.06886675180446
 0 <= xp_3_2 <= 1.55611307280414
 0 <= xp_3_3 <= 0.389028268201035
 0 <= xp_4_0 <= 26.5305972199019
 0 <= xp_5_0 <= 12.2448910245701
 0 <= xp_5_1 <= 8.16326068304673
 0 <= xp_5_2 <= 6.12244551228504
 0 <= xp_6_0 <= 16.5306028831696
 0 <= xp_6_1 <= 3.67346730737103
 0 <= xp_6_2 <= 1.83673365368551
 0 <= xp_6_3 <= 1.83673365368551
 0 <= xp_7_0 <= 21.1224370173834
 0 <= xp_7_1 <= 1.76020308478195
 0 <= xp_8_0 <= 15.816317573403
 0 <= xp_8_1 <= 4.74489527202091
 0 <= xp_9_0 <= 19.0688667518045
 0 <= xp_10_0 <= 16.1351949438345
 0 <= xp_10_1 <= 2.93367180796992
 0 <= xp_11_0 <= 25.4847049295914
 0 <= xp_11_1 <= 12.7423524647957
 0 <= xp_11_2 <= 10.6186270539964
 0 <= xp_11_3 <= 6.37117623239786
 0 <= xp_12_0 <= 17.9081531234338
 0 <= xp_13_0 <= 14.7321345139359
 0 <= xp_13_1 <= 2.67856991162471
 0 <= xp_14_0 <= 10.2040758538084
 0 <= xp_14_1 <= 6.37754740863025
 0 <= xp_15_0 <= 16.4158070298143
 0 <= xp_16_0 <= 14.540808091677
 0 <= xp_16_1 <= 1.21173400763975
 0 <= xp_17_0 <= 26.9260179015894
 0 <= xp_17_1 <= 2.84438189679827
 0 <= xp_17_2 <= 9.21555812919613
 0 <= xp_17_3 <= 1.42219094839914
 0 <= xp_17_4 <= 2.84438189679827
 0 <= xp_17_5 <= 1.42219094839914
 0 <= xp_17_6 <= 1.42219094839914
 0 <= xp_18_0 <= 22.0663225287623
 0 <= xp_18_1 <= 13.1568866751805
 0 <= xp_18_2 <= 5.07651924236804
 0 <= xp_18_3 <= 1.26912981059201
 0 <= xp_18_4 <= 1.26912981059201
 0 <= xp_18_5 <= 1.26912981059201
 0 <= xp_19_0 <= 28.8392948665309
 0 <= xp_19_1 <= 4.92345810456091
 0 <= xp_19_2 <= 3.69259357842069
 0 <= xp_19_3 <= 2.46172905228046
 0 <= xp_19_4 <= 2.46172905228046
 0 <= xp_19_5 <= 1.23086452614023
 0 <= xp_20_0 <= 27.8188830336993
 0 <= xp_20_1 <= 5.83544526026963
 0 <= xp_20_2 <= 4.45790351490714
 0 <= xp_20_3 <= 4.6683562082157
 0 <= xp_21_0 <= 27.5382709477195
 0 <= xp_21_1 <= 3.08034902719218
 0 <= xp_21_2 <= 1.02678300906406
 0 <= xp_21_3 <= 1.02678300906406
 0 <= xp_21_4 <= 2.05356601812812
 0 <= xp_21_5 <= 6.23085744705553
 0 <= xp_22_0 <= 15.4400486474701
 0 <= xp_22_1 <= 1.79846412178291
 0 <= xp_22_2 <= 9.96810447596368
 0 <= xp_22_3 <= 8.16964035418077
 0 <= xp_22_4 <= 0.899232060891455
 0 <= xp_22_5 <= 0.899232060891455
 0 <= xp_22_6 <= 2.12372541079929
 0 <= xp_23_0 <= 20.9119928189765
 0 <= xp_23_1 <= 5.72065365436511
 0 <= xp_23_2 <= 1.79846412178291
 0 <= xp_23_3 <= 0.899232060891455
 0 <= xp_23_4 <= 6.94514700427294
 0 <= xp_23_5 <= 2.12372541079929
 0 <= xp_23_6 <= 0.899232060891455

End
